47 65 95 27 28 33 85 51 67 30 29 21 48 86 90 96 55 60 17 25 100 
52 59 7 36 39 98 61 76 9 87 22 97 3 56 50 34 70 1 
42 72 64 11 40 38 84 54 20 43 37 89 
14 69 15 23 79 6 66 24 4 35 
92 71 88 82 83 57 16 32 13 
62 31 99 53 49 93 91 80 58 
18 8 5 12 10 
81 
45 2 75 19 63 44 73 78 46 41 94 26 74 68 77 

